NAME : sim49.74927.tour
COMMENT : Length = 74927
COMMENT : Found by LKH [Keld Helsgaun] Fri Sep 14 15:21:07 2018
TYPE : TOUR
DIMENSION : 49
TOUR_SECTION
1
12
40
22
2
44
5
14
35
45
32
28
30
31
41
9
21
29
33
36
8
37
4
47
20
34
49
23
46
39
19
18
38
15
10
26
7
25
16
6
11
3
27
48
42
17
43
13
24
-1
EOF
